32      4       
10      9       14      14      
0       0       0       0       0       3       2       3       4       
9       4       0       0       0       2       12      14      
1       7       0       0       0       3       5       10      11      
9       0       0       0       5       3       6       9       22      
5       0       0       0       3       3       7       8       13      
2       0       0       10      0       2       10      16      
1       0       0       0       7       3       12      14      15      
1       0       5       0       0       2       14      22      
9       0       0       1       0       2       19      27      
9       0       0       0       7       3       21      24      28      
5       0       6       0       0       3       12      13      15      
6       0       4       0       0       3       18      20      23      
1       0       0       1       0       3       19      20      26      
6       6       0       0       0       3       21      25      26      
6       0       0       5       0       3       16      21      22      
5       0       0       10      0       3       17      23      26      
5       0       4       0       0       2       18      20      
10      0       9       0       0       2       19      27      
6       0       0       1       0       3       24      25      28      
2       0       0       0       6       2       25      30      
8       0       0       0       4       2       23      29      
3       0       0       0       9       2       24      28      
9       0       0       3       0       2       30      31      
3       0       0       0       6       1       29      
7       0       0       8       0       1       29      
3       0       0       0       7       2       27      31      
7       8       0       0       0       1       30      
10      0       0       0       8       1       31      
3       5       0       0       0       1       32      
8       4       0       0       0       1       32      
7       0       0       10      0       1       32      
0       0       0       0       0       0       